NAME:  mclerc6_2
TYPE: ATSP
COMMENT: Several_Hamilton_cycles._Min.:_6
DIMENSION:  6
EDGE_WEIGHT_TYPE: EXPLICIT
EDGE_WEIGHT_FORMAT: FULL_MATRIX 
EDGE_WEIGHT_SECTION
-1	2	2	-1	2	1	
1	-1	2	-1	2	-1
2	1	2	-1	2	-1
2	-1	1	2	-1	2
-1	2	-1	1	2	-1
2	-1	2	2	1	-1

